39485 39992 
38844 40311 
39198 40089 
38416 40601 
38425 40575 
38660 40563 
38466 40449 
39542 39832 
39678 39752 
39250 40038 
39680 39708 
39652 39820 
38669 40446 
38006 40705 
37873 40753 
39148 40111 
37825 40769 
38213 40608 
38937 40272 
38702 40318 
40030 39380 
39709 39660 
39959 39485 
40166 39300 
39931 39597 
38876 40308 
38157 40639 
37287 40961 
37678 40799 
37522 40949 
38670 40341 
38968 40180 
39835 39655 
40401 39050 
40002 39483 
39658 39796 
36381 41047 
36737 41003 
36616 41035 
40268 39094 
40656 38684 
40472 38936 
40237 39233 
40503 38844 
40846 38311 
40992 38212 
40682 38503 
40877 38219 
40808 38464 
41023 38120 
40684 38465 
40839 38372 
40387 39074 
40582 38790 
